<instance format="XCSP3" type="CSP">
  <variables>
    <var id="x0"> 1 3 4 8 </var>
    <var id="x1"> 1 4 6 12 </var>
    <var id="x2"> 4 13 </var>
    <var id="x3"> 4 6 8 12 </var>
    <var id="x4"> 1 8 12 13 </var>
    <var id="x5"> 3 12 13 </var>
    <var id="x6"> 3 6 8 12 13 </var>
    <var id="x7"> 1 3 9 </var>
    <var id="x8"> 5 6 </var>
    <var id="x9"> 1 2 5 </var>
    <var id="x10"> 2 3 9 13 </var>
    <var id="x11"> 3 5 9 13 </var>
    <var id="x12"> 3 6 13 </var>
    <var id="x13"> 2 13 </var>
    <var id="x14"> 3 4 8 9 11 </var>
    <var id="x15"> 4 5 9 11 </var>
    <var id="x16"> 4 5 11 13 </var>
    <var id="x17"> 4 5 8 11 </var>
    <var id="x18"> 3 9 11 </var>
    <var id="x19"> 3 9 11 13 </var>
    <var id="x20"> 3 8 13 </var>
    <var id="x21"> 4 9 11 </var>
    <var id="x22"> 2 4 6 9 11 12 </var>
    <var id="x23"> 9 11 12 </var>
    <var id="x24"> 9 11 12 </var>
    <var id="x25"> 2 9 11 12 </var>
    <var id="x26"> 0 6 12 </var>
    <var id="x27"> 0 2 4 11 12 </var>
    <var id="x28"> 1 2 4 7 8 </var>
    <var id="x29"> 1 7 8 </var>
    <var id="x30"> 7 8 11 12 </var>
    <var id="x31"> 1 2 4 7 8 </var>
    <var id="x32"> 1 7 11 12 </var>
    <var id="x33"> 8 12 </var>
    <var id="x34"> 2 4 11 12 </var>
    <var id="x35"> 3..5 7 8 </var>
    <var id="x36"> 3 7 8 14 </var>
    <var id="x37"> 4 5 7 13 14 </var>
    <var id="x38"> 3 7 8 13 </var>
    <var id="x39"> 4 5 8 </var>
    <var id="x40"> 3 7 13 </var>
    <var id="x41"> 3 5 7 13 </var>
    <var id="x42"> 3 4 10 11 </var>
    <var id="x43"> 0 4 11 13 </var>
    <var id="x44"> 4 10..12 </var>
    <var id="x45"> 4 </var>
    <var id="x46"> 11..13 </var>
    <var id="x47"> 3 11 12 </var>
    <var id="x48"> 0 4 10..13 </var>
    <var id="x49"> 3 5 7 8 </var>
    <var id="x50"> 14 </var>
    <var id="x51"> 3 7..9 11 </var>
    <var id="x52"> 5 8 11 </var>
    <var id="x53"> 5 7 8 14 </var>
    <var id="x54"> 3 7 9 11 </var>
    <var id="x55"> 11 </var>
    <var id="x56"> 0 3 8 </var>
    <var id="x57"> 2 12 </var>
    <var id="x58"> 3 8 11 </var>
    <var id="x59"> 2 5 11 12 </var>
    <var id="x60"> 5 8 11 12 </var>
    <var id="x61"> 3 5 11 12 </var>
    <var id="x62"> 0 2 11 12 </var>
    <var id="x63"> 1 7 8 </var>
    <var id="x64"> 1 2 12 </var>
    <var id="x65"> 2 5 7 </var>
    <var id="x66"> 7..9 12 </var>
    <var id="x67"> 1 2 5 7 8 </var>
    <var id="x68"> 1 5 8 9 12 </var>
    <var id="x69"> 5 7 9 12 </var>
    <var id="x70"> 1 2 7 </var>
    <var id="x71"> 1 2 10 12 14 </var>
    <var id="x72"> 2 9 11 12 </var>
    <var id="x73"> 2 7 11 14 </var>
    <var id="x74"> 1 2 7 14 </var>
    <var id="x75"> 1 9 11 12 </var>
    <var id="x76"> 1 7 9 11 12 14 </var>
    <var id="x77"> 7 9 11 12 </var>
    <var id="x78"> 1 7 10 </var>
    <var id="x79"> 1 4 10 12 </var>
    <var id="x80"> 1 4 10 11 </var>
    <var id="x81"> 4 11 12 </var>
    <var id="x82"> 1 7 11 12 </var>
    <var id="x83"> 7 11..13 </var>
    <var id="x84"> 4 10..13 </var>
    <var id="x85"> 3 4 </var>
    <var id="x86"> 4 6 12 14 </var>
    <var id="x87"> 4 11 13 14 </var>
    <var id="x88"> 3 11..13 </var>
    <var id="x89"> 4 14 </var>
    <var id="x90"> 11..13 </var>
    <var id="x91"> 3 11 12 14 </var>
    <var id="x92"> 2 5 7 8 </var>
    <var id="x93"> 7 8 10 14 </var>
    <var id="x94"> 2 5 12 </var>
    <var id="x95"> 7 8 12 </var>
    <var id="x96"> 5 8 10 12 </var>
    <var id="x97"> 2 7 12 </var>
    <var id="x98"> 8 12 14 </var>
    <var id="x99"> 0 1 7 10 14 </var>
    <var id="x100"> 1 9..11 </var>
    <var id="x101"> 9 11 </var>
    <var id="x102"> 0 7 11 14 </var>
    <var id="x103"> 1 9 11 </var>
    <var id="x104"> 7 9 11 </var>
    <var id="x105"> 0 14 </var>
  </variables>
  <constraints>
    <group>
      <allDifferent> %... </allDifferent>
      <args> x0 x1 x2 x3 x4 x5 x6 </args>
      <args> x7 x8 x9 x10 x11 x12 x13 </args>
      <args> x14 x15 x16 x17 x18 x19 x20 </args>
      <args> x21 x22 x23 x24 x25 x26 x27 </args>
      <args> x28 x29 x30 x31 x32 x33 x34 </args>
      <args> x35 x36 x37 x38 x39 x40 x41 </args>
      <args> x42 x43 x44 x45 x46 x47 x48 </args>
      <args> x49 x50 x51 x52 x53 x54 x55 </args>
      <args> x56 x57 x58 x59 x60 x61 x62 </args>
      <args> x63 x64 x65 x66 x67 x68 x69 </args>
      <args> x70 x71 x72 x73 x74 x75 x76 x77 </args>
      <args> x78 x79 x80 x81 x82 x83 x84 </args>
      <args> x85 x86 x87 x88 x89 x90 x91 </args>
      <args> x92 x93 x94 x95 x96 x97 x98 </args>
      <args> x99 x100 x101 x102 x103 x104 x105 </args>
      <args> x0 x28 x35 x49 x70 x85 x92 </args>
      <args> x29 x36 x56 x63 x78 x93 x99 </args>
      <args> x1 x50 x57 x64 x71 x79 x86 </args>
      <args> x7 x14 x21 x42 x58 x80 x100 </args>
      <args> x15 x22 x59 x72 x81 x94 x101 </args>
      <args> x2 x16 x37 x43 x65 x73 x87 x102 </args>
      <args> x23 x30 x38 x51 x66 x88 x95 </args>
      <args> x3 x8 x17 x39 x44 x52 x96 </args>
      <args> x9 x31 x45 x53 x67 x74 x89 </args>
      <args> x4 x46 x60 x68 x75 x90 x103 </args>
      <args> x18 x24 x32 x47 x76 x82 x91 </args>
      <args> x10 x19 x25 x40 x54 x83 x97 </args>
      <args> x5 x11 x41 x61 x69 x77 x104 </args>
      <args> x6 x12 x20 x26 x33 x98 x105 </args>
      <args> x13 x27 x34 x48 x55 x62 x84 </args>
    </group>
  </constraints>
</instance>

